objective value:                                 -451
phiSFC_3                                            1 	(obj:-100)
phiLink_s0_(0,_1)_(2,_3)                            1 	(obj:1)
phiLink_s0_(1,_2)_(3,_1)                            1 	(obj:1)
phiLink_s0_(2,_3)_(1,_6)                            1 	(obj:1)
phiLink_s0_(3,_4)_(6,_0)                            1 	(obj:1)
phiLink_s1_(0,_1)_(12,_10)                          1 	(obj:1)
phiLink_s1_(1,_2)_(10,_11)                          1 	(obj:1)
phiLink_s1_(2,_3)_(11,_7)                           1 	(obj:1)
phiLink_s1_(3,_4)_(7,_5)                            1 	(obj:1)
phiLink_s1_(4,_5)_(5,_3)                            1 	(obj:1)
phiLink_s2_(0,_1)_(1,_0)                            1 	(obj:1)
phiLink_s2_(1,_2)_(0,_9)                            1 	(obj:1)
phiLink_s2_(2,_3)_(9,_11)                           1 	(obj:1)
phiLink_s2_(3,_4)_(11,_3)                           1 	(obj:1)
phiLink_s3_(0,_1)_(3,_1)                            1 	(obj:1)
phiLink_s3_(1,_2)_(1,_11)                           1 	(obj:1)
phiLink_s3_(2,_3)_(11,_0)                           1 	(obj:1)
phiLink_s3_(3,_4)_(0,_10)                           1 	(obj:1)
phiLink_s4_(0,_1)_(10,_7)                           1 	(obj:1)
phiLink_s4_(1,_2)_(7,_12)                           1 	(obj:1)
phiLink_s4_(2,_3)_(12,_5)                           1 	(obj:1)
phiLink_s4_(3,_4)_(5,_8)                            1 	(obj:1)
phiLink_s4_(4,_5)_(8,_11)                           1 	(obj:1)
phiNode_s0_0_2                                      1 	(obj:1)
phiNode_s0_1_3                                      1 	(obj:1)
phiNode_s0_2_1                                      1 	(obj:1)
phiNode_s0_3_6                                      1 	(obj:1)
phiNode_s0_4_0                                      1 	(obj:1)
phiNode_s1_0_12                                     1 	(obj:1)
phiNode_s1_1_10                                     1 	(obj:1)
phiNode_s1_2_11                                     1 	(obj:1)
phiNode_s1_3_7                                      1 	(obj:1)
phiNode_s1_4_5                                      1 	(obj:1)
phiNode_s1_5_3                                      1 	(obj:1)
phiNode_s2_0_1                                      1 	(obj:1)
phiNode_s2_1_0                                      1 	(obj:1)
phiNode_s2_2_9                                      1 	(obj:1)
phiNode_s2_3_11                                     1 	(obj:1)
phiNode_s2_4_3                                      1 	(obj:1)
phiNode_s3_0_3                                      1 	(obj:1)
phiNode_s3_1_1                                      1 	(obj:1)
phiNode_s3_2_11                                     1 	(obj:1)
phiNode_s3_3_0                                      1 	(obj:1)
phiNode_s3_4_10                                     1 	(obj:1)
phiNode_s4_0_10                                     1 	(obj:1)
phiNode_s4_1_7                                      1 	(obj:1)
phiNode_s4_2_12                                     1 	(obj:1)
phiNode_s4_3_5                                      1 	(obj:1)
phiNode_s4_4_8                                      1 	(obj:1)
phiNode_s4_5_11                                     1 	(obj:1)
phiSFC_0                                            1 	(obj:-100)
phiSFC_1                                            1 	(obj:-100)
phiSFC_2                                            1 	(obj:-100)
phiSFC_4                                            1 	(obj:-100)
